&CONTROL
  calculation = 'scf'
  etot_conv_thr =   2.0000000000d-05
  forc_conv_thr =   1.0000000000d-04
  max_seconds =   4.1040000000d+04
  outdir = './out/'
  prefix = 'aiida'
  pseudo_dir = './pseudo/'
  tprnfor = .true.
  tstress = .true.
  verbosity = 'high'
/
&SYSTEM
  celldm(1) = 8.0374557182
  ibrav = 2
  degauss =   1.0000000000d-02
  ecutrho =   4.0000000000d+02
  ecutwfc =   5.0000000000d+01
  nat = 2
  nosym = .false.
  ntyp = 2
  occupations = 'smearing'
  smearing = 'cold'
/
&ELECTRONS
  conv_thr =   4.0000000000d-10
  electron_maxstep = 80
  mixing_beta =   4.0000000000d-01
/
ATOMIC_SPECIES
Mg     24.305 Mg.pbesol-n-kjpaw_psl.0.3.0.UPF
O      15.999 O.pbesol-n-kjpaw_psl.0.1.UPF
ATOMIC_POSITIONS (alat)
Mg      0.000000000  0.000000000  0.000000000
O       0.500000000  0.500000000  0.500000000
K_POINTS automatic
18 18 18 0 0 0
